c --- [ banner ] -------------------------------------------------------------
c 
c CaDiCaL SAT Solver
c Copyright (c) 2016-2024 A. Biere, M. Fleury, N. Froleyks, K. Fazekas, F. Pollitt
c 
c Version 2.1.0
c g++ (Ubuntu 11.4.0-1ubuntu1~22.04) 11.4.0 -Wall -Wextra -O3 -DNDEBUG
c Thu Dec 5 14:54:16 CET 2024 Linux c-HP-Pavilion-x360-Convertible-14-dh1xxx 5.15.0-125-generic x86_64
c 
c --- [ parsing input ] ------------------------------------------------------
c 
c reading DIMACS file from 'add88.cnf'
c opening file to read 'add88.cnf'
c found 'p cnf 149 400' header
c parsed 400 clauses in 0.00 seconds process time
c 
c --- [ options ] ------------------------------------------------------------
c 
c all options are set to their default value
c 
c --- [ solving ] ------------------------------------------------------------
c 
c time measured in process time since initialization
c 
c  seconds  reductions  redundant irredundant
c         MB    restarts       trail    variables
c          level   conflicts       glue     remaining
c 
c *  0.00  2  0 0   0    0    0  0% 0  399 148 99%
c {  0.00  2  0 0   0    0    0  0% 0  399 148 99%
c i  0.00  2 16 0   0   19   15 88% 1  399 145 97%
c i  0.00  4  9 0   0   86   70 69% 2  399 129 87%
c i  0.00  4  8 0   0   94   75 68% 2  399 124 83%
c i  0.00  4  8 0   0  100   80 67% 2  399 123 83%
c i  0.00  4  8 0   0  105   83 66% 2  399 119 80%
c i  0.00  4  8 0   0  106   83 66% 2  399 118 79%
c }  0.00  4  8 0   0  108   83 65% 2  399 107 72%
c 0  0.00  4  8 0   0  108   83 65% 2  399 107 72%
c 
c --- [ result ] -------------------------------------------------------------
c 
s UNSATISFIABLE
c 
c --- [ run-time profiling ] -------------------------------------------------
c 
c process time taken by individual solving procedures
c (percentage relative to process time for solving)
c 
c         0.00   91.80% search
c         0.00   80.95% unstable
c         0.00   23.82% parse
c         0.00    8.58% lucky
c         0.00    0.00% simplify
c   =================================
c         0.00   74.25% solve
c 
c last line shows process time for solving
c (percentage relative to total process time)
c 
c --- [ statistics ] ---------------------------------------------------------
c 
c chronological:                46        42.59 %  of conflicts
c conflicts:                   108     37344.40    per second
c decisions:                   181     62586.45    per second
c fixed:                        42        28.19 %  of all variables
c learned:                      99        91.67 %  per conflict
c learned_lits:                319       100.00 %  learned literals
c minimized:                     0         0.00 %  learned literals
c shrunken:                     42        13.17 %  learned literals
c minishrunken:                  2         0.63 %  learned literals
c otfs:                          4         3.70 %  of conflict
c propagations:               2766         0.96 M  per second
c subsumed:                      9         1.83 %  of all clauses
c strengthened:                  4         0.81 %  of all clauses
c 
c seconds are measured in process time for solving
c 
c --- [ resources ] ----------------------------------------------------------
c 
c total process time since initialization:         0.00    seconds
c total real time since initialization:            0.00    seconds
c maximum resident set size of process:            4.22    MB
c 
c --- [ shutting down ] ------------------------------------------------------
c 
c exit 20
